(set-info :smt-lib-version 2.6)
(set-logic UF)
(set-info :source |Benchmarks from the paper: "Extending Sledgehammer with SMT Solvers" by Jasmin Blanchette, Sascha Bohme, and Lawrence C. Paulson, CADE 2011.  Translated to SMT2 by Andrew Reynolds and Morgan Deters.|)
(set-info :category "industrial")
(set-info :status sat)
(declare-sort S1 0)
(declare-sort S2 0)
(declare-sort S3 0)
(declare-sort S4 0)
(declare-sort S5 0)
(declare-sort S6 0)
(declare-sort S7 0)
(declare-sort S8 0)
(declare-sort S9 0)
(declare-sort S10 0)
(declare-sort S11 0)
(declare-sort S12 0)
(declare-sort S13 0)
(declare-sort S14 0)
(declare-sort S15 0)
(declare-sort S16 0)
(declare-sort S17 0)
(declare-sort S18 0)
(declare-sort S19 0)
(declare-sort S20 0)
(declare-sort S21 0)
(declare-sort S22 0)
(declare-sort S23 0)
(declare-sort S24 0)
(declare-sort S25 0)
(declare-sort S26 0)
(declare-sort S27 0)
(declare-sort S28 0)
(declare-sort S29 0)
(declare-sort S30 0)
(declare-sort S31 0)
(declare-sort S32 0)
(declare-sort S33 0)
(declare-sort S34 0)
(declare-sort S35 0)
(declare-sort S36 0)
(declare-sort S37 0)
(declare-sort S38 0)
(declare-sort S39 0)
(declare-sort S40 0)
(declare-sort S41 0)
(declare-sort S42 0)
(declare-sort S43 0)
(declare-sort S44 0)
(declare-sort S45 0)
(declare-sort S46 0)
(declare-sort S47 0)
(declare-sort S48 0)
(declare-sort S49 0)
(declare-sort S50 0)
(declare-sort S51 0)
(declare-sort S52 0)
(declare-sort S53 0)
(declare-sort S54 0)
(declare-sort S55 0)
(declare-sort S56 0)
(declare-sort S57 0)
(declare-sort S58 0)
(declare-sort S59 0)
(declare-sort S60 0)
(declare-sort S61 0)
(declare-sort S62 0)
(declare-sort S63 0)
(declare-sort S64 0)
(declare-sort S65 0)
(declare-sort S66 0)
(declare-sort S67 0)
(declare-sort S68 0)
(declare-sort S69 0)
(declare-sort S70 0)
(declare-sort S71 0)
(declare-sort S72 0)
(declare-sort S73 0)
(declare-sort S74 0)
(declare-sort S75 0)
(declare-sort S76 0)
(declare-sort S77 0)
(declare-sort S78 0)
(declare-sort S79 0)
(declare-sort S80 0)
(declare-sort S81 0)
(declare-sort S82 0)
(declare-sort S83 0)
(declare-sort S84 0)
(declare-sort S85 0)
(declare-sort S86 0)
(declare-sort S87 0)
(declare-sort S88 0)
(declare-sort S89 0)
(declare-sort S90 0)
(declare-sort S91 0)
(declare-sort S92 0)
(declare-sort S93 0)
(declare-sort S94 0)
(declare-sort S95 0)
(declare-sort S96 0)
(declare-sort S97 0)
(declare-sort S98 0)
(declare-sort S99 0)
(declare-sort S100 0)
(declare-sort S101 0)
(declare-fun f1 () S1)
(declare-fun f2 () S1)
(declare-fun f3 (S3 S2) S1)
(declare-fun f4 (S4 S3) S3)
(declare-fun f5 (S2) S4)
(declare-fun f6 (S2 S3) S1)
(declare-fun f7 (S6 S5) S1)
(declare-fun f8 (S7 S6) S6)
(declare-fun f9 (S5) S7)
(declare-fun f10 (S5 S6) S1)
(declare-fun f11 (S9 S8) S1)
(declare-fun f12 (S10 S9) S9)
(declare-fun f13 (S8) S10)
(declare-fun f14 (S8 S9) S1)
(declare-fun f15 (S2) S4)
(declare-fun f16 (S5) S7)
(declare-fun f17 (S8) S10)
(declare-fun f18 (S11 S2) S12)
(declare-fun f19 () S11)
(declare-fun f20 () S12)
(declare-fun f21 (S13 S2) S14)
(declare-fun f22 () S13)
(declare-fun f23 () S14)
(declare-fun f24 (S15 S2) S16)
(declare-fun f25 () S15)
(declare-fun f26 () S16)
(declare-fun f27 (S17 S5) S18)
(declare-fun f28 () S17)
(declare-fun f29 () S18)
(declare-fun f30 (S19 S5) S14)
(declare-fun f31 () S19)
(declare-fun f32 (S20 S8) S18)
(declare-fun f33 () S20)
(declare-fun f34 (S16 S16) S1)
(declare-fun f35 (S21 S6) S16)
(declare-fun f36 () S21)
(declare-fun f37 (S5) S7)
(declare-fun f38 () S5)
(declare-fun f39 (S22) S6)
(declare-fun f40 () S22)
(declare-fun f41 (S6) S7)
(declare-fun f42 (S17) S6)
(declare-fun f43 () S17)
(declare-fun f44 (S23 S24) S12)
(declare-fun f45 () S23)
(declare-fun f46 () S24)
(declare-fun f47 (S25 S26) S12)
(declare-fun f48 () S25)
(declare-fun f49 (S27 S28) S26)
(declare-fun f50 (S29 S5) S27)
(declare-fun f51 () S29)
(declare-fun f52 () S5)
(declare-fun f53 () S28)
(declare-fun f54 (S30) S24)
(declare-fun f55 () S30)
(declare-fun f56 (S22) S24)
(declare-fun f57 (S31) S24)
(declare-fun f58 () S31)
(declare-fun f59 (S32 S16) S1)
(declare-fun f60 (S33 S30) S32)
(declare-fun f61 (S34 S35) S33)
(declare-fun f62 () S34)
(declare-fun f63 () S35)
(declare-fun f64 (S31) S9)
(declare-fun f65 (S36) S9)
(declare-fun f66 () S36)
(declare-fun f67 () S8)
(declare-fun f68 (S22) S1)
(declare-fun f69 (S37 S38) S9)
(declare-fun f70 (S39 S19) S37)
(declare-fun f71 (S36) S39)
(declare-fun f72 (S40 S14) S19)
(declare-fun f73 (S41 S5) S40)
(declare-fun f74 (S42 S19) S41)
(declare-fun f75 () S42)
(declare-fun f76 (S43 S31) S19)
(declare-fun f77 (S44 S22) S43)
(declare-fun f78 (S45 S19) S44)
(declare-fun f79 () S45)
(declare-fun f80 (S46 S8) S14)
(declare-fun f81 () S46)
(declare-fun f82 (S47 S5) S8)
(declare-fun f83 () S47)
(declare-fun f84 () S5)
(declare-fun f85 () S38)
(declare-fun f86 () S8)
(declare-fun f87 (S48 S8) S9)
(declare-fun f88 (S36) S48)
(declare-fun f89 (S49 S50) S23)
(declare-fun f90 () S49)
(declare-fun f91 (S23 S17) S50)
(declare-fun f92 (S51 S52) S6)
(declare-fun f93 (S53 S8) S51)
(declare-fun f94 (S54 S31) S53)
(declare-fun f95 (S55 S5) S54)
(declare-fun f96 (S56 S5) S55)
(declare-fun f97 (S36) S56)
(declare-fun f98 () S5)
(declare-fun f99 (S57 S38) S52)
(declare-fun f100 (S58 S22) S57)
(declare-fun f101 () S58)
(declare-fun f102 (S59 S30) S20)
(declare-fun f103 (S60 S31) S59)
(declare-fun f104 (S61 S20) S60)
(declare-fun f105 () S61)
(declare-fun f106 (S62 S18) S20)
(declare-fun f107 (S63 S8) S62)
(declare-fun f108 (S64 S20) S63)
(declare-fun f109 () S64)
(declare-fun f110 (S65 S2) S18)
(declare-fun f111 () S65)
(declare-fun f112 (S66 S30) S17)
(declare-fun f113 (S67 S22) S66)
(declare-fun f114 (S68 S17) S67)
(declare-fun f115 () S68)
(declare-fun f116 (S69 S18) S17)
(declare-fun f117 (S70 S5) S69)
(declare-fun f118 (S71 S17) S70)
(declare-fun f119 () S71)
(declare-fun f120 (S30) S3)
(declare-fun f121 (S72 S31) S13)
(declare-fun f122 (S73 S30) S72)
(declare-fun f123 (S74 S13) S73)
(declare-fun f124 () S74)
(declare-fun f125 (S75 S14) S13)
(declare-fun f126 (S76 S2) S75)
(declare-fun f127 (S77 S13) S76)
(declare-fun f128 () S77)
(declare-fun f129 (S79 S78) S11)
(declare-fun f130 (S80 S30) S79)
(declare-fun f131 (S81 S11) S80)
(declare-fun f132 () S81)
(declare-fun f133 (S82 S12) S11)
(declare-fun f134 (S83 S2) S82)
(declare-fun f135 (S84 S11) S83)
(declare-fun f136 () S84)
(declare-fun f137 (S86 S85) S15)
(declare-fun f138 (S87 S30) S86)
(declare-fun f139 (S88 S15) S87)
(declare-fun f140 () S88)
(declare-fun f141 (S89 S16) S15)
(declare-fun f142 (S90 S2) S89)
(declare-fun f143 (S91 S15) S90)
(declare-fun f144 () S91)
(declare-fun f145 (S92 S36) S1)
(declare-fun f146 () S92)
(declare-fun f147 (S2) S4)
(declare-fun f148 (S13) S3)
(declare-fun f149 (S8) S10)
(declare-fun f150 (S46) S9)
(declare-fun f151 (S11) S3)
(declare-fun f152 (S93 S8) S12)
(declare-fun f153 (S93) S9)
(declare-fun f154 (S15) S3)
(declare-fun f155 (S94 S8) S16)
(declare-fun f156 (S94) S9)
(declare-fun f157 (S95 S38) S35)
(declare-fun f158 (S96 S2) S95)
(declare-fun f159 (S97 S35) S96)
(declare-fun f160 () S97)
(declare-fun f161 (S19 S22) S98)
(declare-fun f162 (S15 S30) S99)
(declare-fun f163 (S11 S30) S100)
(declare-fun f164 (S13 S30) S98)
(declare-fun f165 (S17 S22) S101)
(declare-fun f166 (S20 S31) S101)
(declare-fun f167 (S35 S2) S38)
(declare-fun f168 (S9) S10)
(declare-fun f169 (S3) S4)
(declare-fun f170 (S6) S6)
(declare-fun f171 (S3) S3)
(declare-fun f172 (S9) S9)
(assert (not (= f1 f2)))
(assert (forall ((?v0 S2) (?v1 S3) (?v2 S2)) (= (= (f3 (f4 (f5 ?v0) ?v1) ?v2) f1) (or (= ?v2 ?v0) (= (f6 ?v2 ?v1) f1)))))
(assert (forall ((?v0 S5) (?v1 S6) (?v2 S5)) (= (= (f7 (f8 (f9 ?v0) ?v1) ?v2) f1) (or (= ?v2 ?v0) (= (f10 ?v2 ?v1) f1)))))
(assert (forall ((?v0 S8) (?v1 S9) (?v2 S8)) (= (= (f11 (f12 (f13 ?v0) ?v1) ?v2) f1) (or (= ?v2 ?v0) (= (f14 ?v2 ?v1) f1)))))
(assert (forall ((?v0 S2) (?v1 S3) (?v2 S2)) (= (= (f3 (f4 (f15 ?v0) ?v1) ?v2) f1) (=> (not (= ?v2 ?v0)) (= (f3 ?v1 ?v2) f1)))))
(assert (forall ((?v0 S5) (?v1 S6) (?v2 S5)) (= (= (f7 (f8 (f16 ?v0) ?v1) ?v2) f1) (=> (not (= ?v2 ?v0)) (= (f7 ?v1 ?v2) f1)))))
(assert (forall ((?v0 S8) (?v1 S9) (?v2 S8)) (= (= (f11 (f12 (f17 ?v0) ?v1) ?v2) f1) (=> (not (= ?v2 ?v0)) (= (f11 ?v1 ?v2) f1)))))
(assert (forall ((?v0 S2)) (= (f18 f19 ?v0) f20)))
(assert (forall ((?v0 S2)) (= (f21 f22 ?v0) f23)))
(assert (forall ((?v0 S2)) (= (f24 f25 ?v0) f26)))
(assert (forall ((?v0 S5)) (= (f27 f28 ?v0) f29)))
(assert (forall ((?v0 S5)) (= (f30 f31 ?v0) f23)))
(assert (forall ((?v0 S8)) (= (f32 f33 ?v0) f29)))
(assert (let ((?v_0 (f37 f38)) (?v_1 (f39 f40))) (not (= (f34 (f35 f36 (f8 ?v_0 ?v_1)) (f35 f36 (f8 ?v_0 (f8 (f41 (f42 f43)) ?v_1)))) f1))))
(assert (= (f44 f45 f46) (f47 f48 (f49 (f50 f51 f52) f53))))
(assert (= (f54 f55) (f56 f40)))
(assert (= (f57 f58) (f56 f40)))
(assert (= (f59 (f60 (f61 f62 f63) f55) (f35 f36 (f42 f43))) f1))
(assert (forall ((?v0 S8)) (=> (= (f14 ?v0 (f64 f58)) f1) (= (f11 (f65 f66) ?v0) f1))))
(assert (= (f11 (f65 f66) f67) f1))
(assert (= (f68 f40) f1))
(assert (not (= (f10 f38 (f39 f40)) f1)))
(assert (= (f11 (f69 (f70 (f71 f66) (f72 (f73 (f74 f75 (f76 (f77 (f78 f79 f31) f40) f58)) f38) (f80 f81 (f82 f83 f84)))) f85) f86) f1))
(assert (= (f11 (f87 (f88 f66) f86) f67) f1))
(assert (= (f57 f58) (f56 f40)))
(assert (= (f54 f55) (f56 f40)))
(assert (= (f44 (f89 f90 (f91 f45 f43)) f46) (f47 f48 (f49 (f50 f51 f52) f53))))
(assert (= (f7 (f92 (f93 (f94 (f95 (f96 (f97 f66) f52) f98) f58) f67) (f99 (f100 f101 f40) f85)) f84) f1))
(assert (forall ((?v0 S8) (?v1 S31) (?v2 S20) (?v3 S2) (?v4 S30)) (let ((?v_0 (f110 f111 ?v3))) (=> (not (= (f14 ?v0 (f64 ?v1)) f1)) (= (f102 (f103 (f104 f105 (f106 (f107 (f108 f109 ?v2) ?v0) ?v_0)) ?v1) ?v4) (f106 (f107 (f108 f109 (f102 (f103 (f104 f105 ?v2) ?v1) ?v4)) ?v0) ?v_0))))))
(assert (forall ((?v0 S5) (?v1 S22) (?v2 S17) (?v3 S2) (?v4 S30)) (let ((?v_0 (f110 f111 ?v3))) (=> (not (= (f10 ?v0 (f39 ?v1)) f1)) (= (f112 (f113 (f114 f115 (f116 (f117 (f118 f119 ?v2) ?v0) ?v_0)) ?v1) ?v4) (f116 (f117 (f118 f119 (f112 (f113 (f114 f115 ?v2) ?v1) ?v4)) ?v0) ?v_0))))))
(assert (forall ((?v0 S5) (?v1 S22) (?v2 S19) (?v3 S8) (?v4 S31)) (let ((?v_0 (f80 f81 ?v3))) (=> (not (= (f10 ?v0 (f39 ?v1)) f1)) (= (f76 (f77 (f78 f79 (f72 (f73 (f74 f75 ?v2) ?v0) ?v_0)) ?v1) ?v4) (f72 (f73 (f74 f75 (f76 (f77 (f78 f79 ?v2) ?v1) ?v4)) ?v0) ?v_0))))))
(assert (forall ((?v0 S2) (?v1 S30) (?v2 S13) (?v3 S8) (?v4 S31)) (let ((?v_0 (f80 f81 ?v3))) (=> (not (= (f6 ?v0 (f120 ?v1)) f1)) (= (f121 (f122 (f123 f124 (f125 (f126 (f127 f128 ?v2) ?v0) ?v_0)) ?v1) ?v4) (f125 (f126 (f127 f128 (f121 (f122 (f123 f124 ?v2) ?v1) ?v4)) ?v0) ?v_0))))))
(assert (forall ((?v0 S2) (?v1 S30) (?v2 S11) (?v3 S26) (?v4 S78)) (let ((?v_0 (f47 f48 ?v3))) (=> (not (= (f6 ?v0 (f120 ?v1)) f1)) (= (f129 (f130 (f131 f132 (f133 (f134 (f135 f136 ?v2) ?v0) ?v_0)) ?v1) ?v4) (f133 (f134 (f135 f136 (f129 (f130 (f131 f132 ?v2) ?v1) ?v4)) ?v0) ?v_0))))))
(assert (forall ((?v0 S2) (?v1 S30) (?v2 S15) (?v3 S6) (?v4 S85)) (let ((?v_0 (f35 f36 ?v3))) (=> (not (= (f6 ?v0 (f120 ?v1)) f1)) (= (f137 (f138 (f139 f140 (f141 (f142 (f143 f144 ?v2) ?v0) ?v_0)) ?v1) ?v4) (f141 (f142 (f143 f144 (f137 (f138 (f139 f140 ?v2) ?v1) ?v4)) ?v0) ?v_0))))))
(assert (= (f145 f146 f66) f1))
(assert (forall ((?v0 S19) (?v1 S5) (?v2 S8)) (not (= (f72 (f73 (f74 f75 ?v0) ?v1) (f80 f81 ?v2)) f31))))
(assert (forall ((?v0 S15) (?v1 S2) (?v2 S6)) (not (= (f141 (f142 (f143 f144 ?v0) ?v1) (f35 f36 ?v2)) f25))))
(assert (forall ((?v0 S11) (?v1 S2) (?v2 S26)) (not (= (f133 (f134 (f135 f136 ?v0) ?v1) (f47 f48 ?v2)) f19))))
(assert (forall ((?v0 S13) (?v1 S2) (?v2 S8)) (not (= (f125 (f126 (f127 f128 ?v0) ?v1) (f80 f81 ?v2)) f22))))
(assert (forall ((?v0 S17) (?v1 S5) (?v2 S2)) (not (= (f116 (f117 (f118 f119 ?v0) ?v1) (f110 f111 ?v2)) f28))))
(assert (forall ((?v0 S20) (?v1 S8) (?v2 S2)) (not (= (f106 (f107 (f108 f109 ?v0) ?v1) (f110 f111 ?v2)) f33))))
(assert (forall ((?v0 S17) (?v1 S5) (?v2 S2)) (let ((?v_0 (f42 ?v0))) (=> (= (f27 ?v0 ?v1) (f110 f111 ?v2)) (= (f8 (f37 ?v1) ?v_0) ?v_0)))))
(assert (forall ((?v0 S13) (?v1 S2) (?v2 S8)) (let ((?v_0 (f148 ?v0))) (=> (= (f21 ?v0 ?v1) (f80 f81 ?v2)) (= (f4 (f147 ?v1) ?v_0) ?v_0)))))
(assert (forall ((?v0 S46) (?v1 S8) (?v2 S8)) (let ((?v_0 (f150 ?v0))) (=> (= (f80 ?v0 ?v1) (f80 f81 ?v2)) (= (f12 (f149 ?v1) ?v_0) ?v_0)))))
(assert (forall ((?v0 S11) (?v1 S2) (?v2 S26)) (let ((?v_0 (f151 ?v0))) (=> (= (f18 ?v0 ?v1) (f47 f48 ?v2)) (= (f4 (f147 ?v1) ?v_0) ?v_0)))))
(assert (forall ((?v0 S93) (?v1 S8) (?v2 S26)) (let ((?v_0 (f153 ?v0))) (=> (= (f152 ?v0 ?v1) (f47 f48 ?v2)) (= (f12 (f149 ?v1) ?v_0) ?v_0)))))
(assert (forall ((?v0 S15) (?v1 S2) (?v2 S6)) (let ((?v_0 (f154 ?v0))) (=> (= (f24 ?v0 ?v1) (f35 f36 ?v2)) (= (f4 (f147 ?v1) ?v_0) ?v_0)))))
(assert (forall ((?v0 S94) (?v1 S8) (?v2 S6)) (let ((?v_0 (f156 ?v0))) (=> (= (f155 ?v0 ?v1) (f35 f36 ?v2)) (= (f12 (f149 ?v1) ?v_0) ?v_0)))))
(assert (forall ((?v0 S2) (?v1 S30) (?v2 S35) (?v3 S38)) (=> (not (= (f6 ?v0 (f120 ?v1)) f1)) (= (f60 (f61 f62 (f157 (f158 (f159 f160 ?v2) ?v0) ?v3)) ?v1) (f60 (f61 f62 ?v2) ?v1)))))
(assert (forall ((?v0 S5) (?v1 S22) (?v2 S19) (?v3 S14)) (=> (not (= (f10 ?v0 (f39 ?v1)) f1)) (= (f161 (f72 (f73 (f74 f75 ?v2) ?v0) ?v3) ?v1) (f161 ?v2 ?v1)))))
(assert (forall ((?v0 S2) (?v1 S30) (?v2 S15) (?v3 S16)) (=> (not (= (f6 ?v0 (f120 ?v1)) f1)) (= (f162 (f141 (f142 (f143 f144 ?v2) ?v0) ?v3) ?v1) (f162 ?v2 ?v1)))))
(assert (forall ((?v0 S2) (?v1 S30) (?v2 S11) (?v3 S12)) (=> (not (= (f6 ?v0 (f120 ?v1)) f1)) (= (f163 (f133 (f134 (f135 f136 ?v2) ?v0) ?v3) ?v1) (f163 ?v2 ?v1)))))
(assert (forall ((?v0 S2) (?v1 S30) (?v2 S13) (?v3 S14)) (=> (not (= (f6 ?v0 (f120 ?v1)) f1)) (= (f164 (f125 (f126 (f127 f128 ?v2) ?v0) ?v3) ?v1) (f164 ?v2 ?v1)))))
(assert (forall ((?v0 S5) (?v1 S22) (?v2 S17) (?v3 S18)) (=> (not (= (f10 ?v0 (f39 ?v1)) f1)) (= (f165 (f116 (f117 (f118 f119 ?v2) ?v0) ?v3) ?v1) (f165 ?v2 ?v1)))))
(assert (forall ((?v0 S8) (?v1 S31) (?v2 S20) (?v3 S18)) (=> (not (= (f14 ?v0 (f64 ?v1)) f1)) (= (f166 (f106 (f107 (f108 f109 ?v2) ?v0) ?v3) ?v1) (f166 ?v2 ?v1)))))
(assert (forall ((?v0 S36) (?v1 S8)) (= (f11 (f87 (f88 ?v0) ?v1) ?v1) f1)))
(assert (forall ((?v0 S32) (?v1 S16) (?v2 S16)) (=> (= (f59 ?v0 ?v1) f1) (=> (= (f34 ?v1 ?v2) f1) (= (f59 ?v0 ?v2) f1)))))
(assert (forall ((?v0 S16) (?v1 S16) (?v2 S32)) (=> (= (f34 ?v0 ?v1) f1) (=> (= (f59 ?v2 ?v0) f1) (= (f59 ?v2 ?v1) f1)))))
(assert (forall ((?v0 S19) (?v1 S5)) (= (f72 (f73 (f74 f75 ?v0) ?v1) (f30 ?v0 ?v1)) ?v0)))
(assert (forall ((?v0 S15) (?v1 S2)) (= (f141 (f142 (f143 f144 ?v0) ?v1) (f24 ?v0 ?v1)) ?v0)))
(assert (forall ((?v0 S11) (?v1 S2)) (= (f133 (f134 (f135 f136 ?v0) ?v1) (f18 ?v0 ?v1)) ?v0)))
(assert (forall ((?v0 S13) (?v1 S2)) (= (f125 (f126 (f127 f128 ?v0) ?v1) (f21 ?v0 ?v1)) ?v0)))
(assert (forall ((?v0 S17) (?v1 S5)) (= (f116 (f117 (f118 f119 ?v0) ?v1) (f27 ?v0 ?v1)) ?v0)))
(assert (forall ((?v0 S20) (?v1 S8)) (= (f106 (f107 (f108 f109 ?v0) ?v1) (f32 ?v0 ?v1)) ?v0)))
(assert (forall ((?v0 S35) (?v1 S2)) (= (f157 (f158 (f159 f160 ?v0) ?v1) (f167 ?v0 ?v1)) ?v0)))
(assert (forall ((?v0 S5) (?v1 S6) (?v2 S6)) (=> (= (f10 ?v0 (f8 (f41 ?v1) ?v2)) f1) (=> (=> (= (f10 ?v0 ?v1) f1) false) (=> (=> (= (f10 ?v0 ?v2) f1) false) false)))))
(assert (forall ((?v0 S8) (?v1 S9) (?v2 S9)) (=> (= (f14 ?v0 (f12 (f168 ?v1) ?v2)) f1) (=> (=> (= (f14 ?v0 ?v1) f1) false) (=> (=> (= (f14 ?v0 ?v2) f1) false) false)))))
(assert (forall ((?v0 S2) (?v1 S3) (?v2 S3)) (=> (= (f6 ?v0 (f4 (f169 ?v1) ?v2)) f1) (=> (=> (= (f6 ?v0 ?v1) f1) false) (=> (=> (= (f6 ?v0 ?v2) f1) false) false)))))
(assert (forall ((?v0 S5) (?v1 S6) (?v2 S5)) (=> (=> (not (= (f10 ?v0 ?v1) f1)) (= ?v0 ?v2)) (= (f10 ?v0 (f8 (f37 ?v2) ?v1)) f1))))
(assert (forall ((?v0 S8) (?v1 S9) (?v2 S8)) (=> (=> (not (= (f14 ?v0 ?v1) f1)) (= ?v0 ?v2)) (= (f14 ?v0 (f12 (f149 ?v2) ?v1)) f1))))
(assert (forall ((?v0 S2) (?v1 S3) (?v2 S2)) (=> (=> (not (= (f6 ?v0 ?v1) f1)) (= ?v0 ?v2)) (= (f6 ?v0 (f4 (f147 ?v2) ?v1)) f1))))
(assert (forall ((?v0 S5) (?v1 S5) (?v2 S6)) (=> (= (f10 ?v0 (f8 (f37 ?v1) ?v2)) f1) (=> (=> (= ?v0 ?v1) false) (=> (=> (= (f10 ?v0 ?v2) f1) false) false)))))
(assert (forall ((?v0 S8) (?v1 S8) (?v2 S9)) (=> (= (f14 ?v0 (f12 (f149 ?v1) ?v2)) f1) (=> (=> (= ?v0 ?v1) false) (=> (=> (= (f14 ?v0 ?v2) f1) false) false)))))
(assert (forall ((?v0 S2) (?v1 S2) (?v2 S3)) (=> (= (f6 ?v0 (f4 (f147 ?v1) ?v2)) f1) (=> (=> (= ?v0 ?v1) false) (=> (=> (= (f6 ?v0 ?v2) f1) false) false)))))
(assert (forall ((?v0 S5) (?v1 S6) (?v2 S6)) (=> (=> (not (= (f10 ?v0 ?v1) f1)) (= (f10 ?v0 ?v2) f1)) (= (f10 ?v0 (f8 (f41 ?v2) ?v1)) f1))))
(assert (forall ((?v0 S8) (?v1 S9) (?v2 S9)) (=> (=> (not (= (f14 ?v0 ?v1) f1)) (= (f14 ?v0 ?v2) f1)) (= (f14 ?v0 (f12 (f168 ?v2) ?v1)) f1))))
(assert (forall ((?v0 S2) (?v1 S3) (?v2 S3)) (=> (=> (not (= (f6 ?v0 ?v1) f1)) (= (f6 ?v0 ?v2) f1)) (= (f6 ?v0 (f4 (f169 ?v2) ?v1)) f1))))
(assert (forall ((?v0 S36) (?v1 S5) (?v2 S5) (?v3 S31) (?v4 S8) (?v5 S52) (?v6 S5)) (let ((?v_0 (f97 ?v0))) (=> (= (f7 (f92 (f93 (f94 (f95 (f96 ?v_0 ?v1) ?v2) ?v3) ?v4) ?v5) ?v6) f1) (= (f7 (f92 (f93 (f94 (f95 (f96 ?v_0 ?v6) ?v2) ?v3) ?v4) ?v5) ?v6) f1)))))
(assert (forall ((?v0 S36) (?v1 S5) (?v2 S5) (?v3 S31) (?v4 S8) (?v5 S52) (?v6 S5) (?v7 S31) (?v8 S8) (?v9 S52) (?v10 S5)) (let ((?v_0 (f95 (f96 (f97 ?v0) ?v1) ?v2))) (=> (= (f7 (f92 (f93 (f94 ?v_0 ?v3) ?v4) ?v5) ?v6) f1) (=> (= (f7 (f92 (f93 (f94 ?v_0 ?v7) ?v8) ?v9) ?v10) f1) (and (= ?v7 ?v3) (and (= ?v8 ?v4) (and (= ?v9 ?v5) (= ?v10 ?v6)))))))))
(assert (forall ((?v0 S5) (?v1 S6)) (=> (= (f10 ?v0 ?v1) f1) (= (f8 (f37 ?v0) ?v1) ?v1))))
(assert (forall ((?v0 S8) (?v1 S9)) (=> (= (f14 ?v0 ?v1) f1) (= (f12 (f149 ?v0) ?v1) ?v1))))
(assert (forall ((?v0 S2) (?v1 S3)) (=> (= (f6 ?v0 ?v1) f1) (= (f4 (f147 ?v0) ?v1) ?v1))))
(assert (forall ((?v0 S5) (?v1 S6) (?v2 S5)) (=> (= (f10 ?v0 ?v1) f1) (= (f10 ?v0 (f8 (f37 ?v2) ?v1)) f1))))
(assert (forall ((?v0 S8) (?v1 S9) (?v2 S8)) (=> (= (f14 ?v0 ?v1) f1) (= (f14 ?v0 (f12 (f149 ?v2) ?v1)) f1))))
(assert (forall ((?v0 S2) (?v1 S3) (?v2 S2)) (=> (= (f6 ?v0 ?v1) f1) (= (f6 ?v0 (f4 (f147 ?v2) ?v1)) f1))))
(assert (forall ((?v0 S5) (?v1 S6) (?v2 S6)) (let ((?v_0 (f37 ?v0))) (=> (not (= (f10 ?v0 ?v1) f1)) (=> (not (= (f10 ?v0 ?v2) f1)) (= (= (f8 ?v_0 ?v1) (f8 ?v_0 ?v2)) (= ?v1 ?v2)))))))
(assert (forall ((?v0 S8) (?v1 S9) (?v2 S9)) (let ((?v_0 (f149 ?v0))) (=> (not (= (f14 ?v0 ?v1) f1)) (=> (not (= (f14 ?v0 ?v2) f1)) (= (= (f12 ?v_0 ?v1) (f12 ?v_0 ?v2)) (= ?v1 ?v2)))))))
(assert (forall ((?v0 S2) (?v1 S3) (?v2 S3)) (let ((?v_0 (f147 ?v0))) (=> (not (= (f6 ?v0 ?v1) f1)) (=> (not (= (f6 ?v0 ?v2) f1)) (= (= (f4 ?v_0 ?v1) (f4 ?v_0 ?v2)) (= ?v1 ?v2)))))))
(assert (forall ((?v0 S5) (?v1 S6) (?v2 S5)) (= (= (f7 (f8 (f37 ?v0) ?v1) ?v2) f1) (or (= ?v0 ?v2) (= (f7 ?v1 ?v2) f1)))))
(assert (forall ((?v0 S2) (?v1 S3) (?v2 S2)) (= (= (f3 (f4 (f147 ?v0) ?v1) ?v2) f1) (or (= ?v0 ?v2) (= (f3 ?v1 ?v2) f1)))))
(assert (forall ((?v0 S8) (?v1 S9) (?v2 S8)) (= (= (f11 (f12 (f149 ?v0) ?v1) ?v2) f1) (or (= ?v0 ?v2) (= (f11 ?v1 ?v2) f1)))))
(assert (forall ((?v0 S5) (?v1 S5) (?v2 S6)) (= (= (f10 ?v0 (f8 (f37 ?v1) ?v2)) f1) (or (= ?v0 ?v1) (= (f10 ?v0 ?v2) f1)))))
(assert (forall ((?v0 S8) (?v1 S8) (?v2 S9)) (= (= (f14 ?v0 (f12 (f149 ?v1) ?v2)) f1) (or (= ?v0 ?v1) (= (f14 ?v0 ?v2) f1)))))
(assert (forall ((?v0 S2) (?v1 S2) (?v2 S3)) (= (= (f6 ?v0 (f4 (f147 ?v1) ?v2)) f1) (or (= ?v0 ?v1) (= (f6 ?v0 ?v2) f1)))))
(assert (forall ((?v0 S5) (?v1 S5) (?v2 S6)) (let ((?v_1 (f37 ?v0)) (?v_0 (f37 ?v1))) (= (f8 ?v_1 (f8 ?v_0 ?v2)) (f8 ?v_0 (f8 ?v_1 ?v2))))))
(assert (forall ((?v0 S2) (?v1 S2) (?v2 S3)) (let ((?v_1 (f147 ?v0)) (?v_0 (f147 ?v1))) (= (f4 ?v_1 (f4 ?v_0 ?v2)) (f4 ?v_0 (f4 ?v_1 ?v2))))))
(assert (forall ((?v0 S8) (?v1 S8) (?v2 S9)) (let ((?v_1 (f149 ?v0)) (?v_0 (f149 ?v1))) (= (f12 ?v_1 (f12 ?v_0 ?v2)) (f12 ?v_0 (f12 ?v_1 ?v2))))))
(assert (forall ((?v0 S5) (?v1 S6)) (let ((?v_0 (f37 ?v0))) (let ((?v_1 (f8 ?v_0 ?v1))) (= (f8 ?v_0 ?v_1) ?v_1)))))
(assert (forall ((?v0 S2) (?v1 S3)) (let ((?v_0 (f147 ?v0))) (let ((?v_1 (f4 ?v_0 ?v1))) (= (f4 ?v_0 ?v_1) ?v_1)))))
(assert (forall ((?v0 S8) (?v1 S9)) (let ((?v_0 (f149 ?v0))) (let ((?v_1 (f12 ?v_0 ?v1))) (= (f12 ?v_0 ?v_1) ?v_1)))))
(assert (forall ((?v0 S5) (?v1 S6)) (= (f8 (f37 ?v0) (f170 ?v1)) (f170 (f8 (f16 ?v0) ?v1)))))
(assert (forall ((?v0 S2) (?v1 S3)) (= (f4 (f147 ?v0) (f171 ?v1)) (f171 (f4 (f15 ?v0) ?v1)))))
(assert (forall ((?v0 S8) (?v1 S9)) (= (f12 (f149 ?v0) (f172 ?v1)) (f172 (f12 (f17 ?v0) ?v1)))))
(assert (forall ((?v0 S5) (?v1 S6)) (= (f8 (f37 ?v0) ?v1) (f170 (f8 (f9 ?v0) ?v1)))))
(assert (forall ((?v0 S8) (?v1 S9)) (= (f12 (f149 ?v0) ?v1) (f172 (f12 (f13 ?v0) ?v1)))))
(assert (forall ((?v0 S2) (?v1 S3)) (= (f4 (f147 ?v0) ?v1) (f171 (f4 (f5 ?v0) ?v1)))))
(assert (forall ((?v0 S5) (?v1 S6)) (= (f10 ?v0 (f8 (f37 ?v0) ?v1)) f1)))
(assert (forall ((?v0 S8) (?v1 S9)) (= (f14 ?v0 (f12 (f149 ?v0) ?v1)) f1)))
(assert (forall ((?v0 S2) (?v1 S3)) (= (f6 ?v0 (f4 (f147 ?v0) ?v1)) f1)))
(assert (forall ((?v0 S31) (?v1 S31)) (=> (not (= (f57 ?v0) (f57 ?v1))) (= (= ?v0 ?v1) false))))
(assert (forall ((?v0 S22) (?v1 S22)) (=> (not (= (f56 ?v0) (f56 ?v1))) (= (= ?v0 ?v1) false))))
(assert (forall ((?v0 S30) (?v1 S30)) (=> (not (= (f54 ?v0) (f54 ?v1))) (= (= ?v0 ?v1) false))))
(assert (forall ((?v0 S5) (?v1 S6) (?v2 S6)) (=> (= (f10 ?v0 ?v1) f1) (= (f10 ?v0 (f8 (f41 ?v2) ?v1)) f1))))
(assert (forall ((?v0 S8) (?v1 S9) (?v2 S9)) (=> (= (f14 ?v0 ?v1) f1) (= (f14 ?v0 (f12 (f168 ?v2) ?v1)) f1))))
(assert (forall ((?v0 S2) (?v1 S3) (?v2 S3)) (=> (= (f6 ?v0 ?v1) f1) (= (f6 ?v0 (f4 (f169 ?v2) ?v1)) f1))))
(assert (forall ((?v0 S5) (?v1 S6) (?v2 S6)) (=> (= (f10 ?v0 ?v1) f1) (= (f10 ?v0 (f8 (f41 ?v1) ?v2)) f1))))
(assert (forall ((?v0 S8) (?v1 S9) (?v2 S9)) (=> (= (f14 ?v0 ?v1) f1) (= (f14 ?v0 (f12 (f168 ?v1) ?v2)) f1))))
(assert (forall ((?v0 S2) (?v1 S3) (?v2 S3)) (=> (= (f6 ?v0 ?v1) f1) (= (f6 ?v0 (f4 (f169 ?v1) ?v2)) f1))))
(check-sat)
(exit)
